K-POINTS FOR OXYGEN ATOM 
0
Gamma 
1 1 1 
0 0 0                           #
