SYSTEM = O ATOM  
ISMEAR = 0        
SIGMA = 0.01     
ISPIN = 2

