2 atom in a box                         
   1.00000000000000     
     7.5000000000000000    0.0000000000000000    0.0000000000000000
     0.0000000000000000    8.0000000000000000    0.0000000000000000
     0.0000000000000000    0.0000000000000000    8.9000000000000004
   O 
     2
Direct
  0.0000000000000000  0.0000000000000000  0.0020598342251005
  0.0000000000000000  0.0000000000000000  0.1406817388086098
 
  0.00000000E+00  0.00000000E+00  0.00000000E+00
  0.00000000E+00  0.00000000E+00  0.00000000E+00
