2 atom in a box 
1.0                 
7.5 0.0 0.0        
0.0 8.0 0.0        
0.0 0.0 8.9        
O
2                  
Cartesian           
0 0 0               
0.0 0.0 1.2704
